% Logging successfully configured
%%%mzn-stat: initTime=0.022373485
%%%mzn-stat: objective=741
%%%mzn-stat: nodes=827
%%%mzn-stat: restarts=0
%%%mzn-stat: peakDepth=816
%%%mzn-stat: solveTime=0.024550521
%%%mzn-stat: variables=1374
%%%mzn-stat: propagators=1046
%%%mzn-stat: failures=7
%%%mzn-stat: propagations=3876
%%%mzn-stat: nogoods=7
%%%mzn-stat: numAtomicConstraintsPropagated=0
%%%mzn-stat: circuitNumber1PropagationsTotal=179
%%%mzn-stat: circuitNumber1CircuitConflicts=5
%%%mzn-stat: circuitNumber1AlldiffConflicts=2
%%%mzn-stat: circuitNumber1TotalFixedEdgesAtConflict=419
%%%mzn-stat: circuitNumber1NumberOfConflicts=7
%%%mzn-stat: circuitNumber1GacPrunings=507
%%%mzn-stat: circuitNumber1PropagationsThatGacPruned=85
%%%mzn-stat: circuitNumber1TotalPruningHallSetSize=2415
%%%mzn-stat: circuitNumber1NumberOfPruningExplanations=507
%%%mzn-stat: circuitNumber1MaxPruningHallSetSize=73
%%%mzn-stat: circuitNumber1TotalSccSizeAtPruning=1026
%%%mzn-stat: circuitNumber1NumberOfSccPruningCalls=85
%%%mzn-stat: circuitNumber1TotalVarsInvolvedInPruning=448
%%%mzn-stat: circuitNumber1MaxValuesPrunedFromSingleVar=6
%%%mzn-stat: circuitNumber1HallCircuitChecks=242
%%%mzn-stat: circuitNumber1HallCircuitPrunings=4
%%%mzn-stat: circuitNumber1CircuitPreventPrunings=45
%%%mzn-stat: AverageConflictSize=31.142857142857142
%%%mzn-stat: NumUnitNogoodsLearned=0
%%%mzn-stat: AverageLearnedNogoodLength=50.57142857142857
%%%mzn-stat: AverageBacktrackAmount=0
%%%mzn-stat: AverageLbd=24.142857142857142
%%%mzn-stat: 2AutonomousSearchNumBackupCalled=752
%%%mzn-stat: 2AutonomousSearchNumPredicatesRemoved=0
%%%mzn-stat: 2AutonomousSearchNumCalls=753
%%%mzn-stat: 2AutonomousSearchNumPredicatesAdded=981
%%%mzn-stat: 2AutonomousSearchAverageSizeOfHeap=1.302788844621514
%%%mzn-stat: 2AutonomousSearchNumAssignedPredicatesEncountered=981
%%%mzn-stat-end
maxleg = 741;
succ = array1d(1..100,[22, 10, 4, 12, 16, 23, 29, 15, 17, 26, 13, 2, 21, 3, 24, 25, 19, 9, 28, 8, 41, 5, 27, 35, 37, 1, 72, 53, 6, 38, 36, 34, 7, 42, 64, 45, 33, 39, 47, 14, 18, 61, 11, 40, 78, 52, 48, 49, 55, 31, 43, 89, 59, 50, 56, 62, 65, 30, 70, 66, 20, 90, 44, 74, 51, 94, 95, 46, 67, 69, 57, 75, 83, 98, 54, 84, 80, 92, 97, 76, 82, 87, 86, 60, 96, 91, 71, 63, 32, 85, 79, 77, 100, 99, 73, 93, 68, 58, 81, 88]);
% time elapsed: 7.14 s
----------
%%%mzn-stat: initTime=0.022373485
%%%mzn-stat: objective=448
%%%mzn-stat: nodes=16682
%%%mzn-stat: restarts=0
%%%mzn-stat: peakDepth=816
%%%mzn-stat: solveTime=22.943451273
%%%mzn-stat: variables=1374
%%%mzn-stat: propagators=1046
%%%mzn-stat: failures=15019
%%%mzn-stat: propagations=494481
%%%mzn-stat: nogoods=15019
%%%mzn-stat: numAtomicConstraintsPropagated=0
%%%mzn-stat: circuitNumber1PropagationsTotal=103083
%%%mzn-stat: circuitNumber1CircuitConflicts=14089
%%%mzn-stat: circuitNumber1AlldiffConflicts=801
%%%mzn-stat: circuitNumber1TotalFixedEdgesAtConflict=827598
%%%mzn-stat: circuitNumber1NumberOfConflicts=14890
%%%mzn-stat: circuitNumber1GacPrunings=181159
%%%mzn-stat: circuitNumber1PropagationsThatGacPruned=60489
%%%mzn-stat: circuitNumber1TotalPruningHallSetSize=984606
%%%mzn-stat: circuitNumber1NumberOfPruningExplanations=181159
%%%mzn-stat: circuitNumber1MaxPruningHallSetSize=84
%%%mzn-stat: circuitNumber1TotalSccSizeAtPruning=601309
%%%mzn-stat: circuitNumber1NumberOfSccPruningCalls=60489
%%%mzn-stat: circuitNumber1TotalVarsInvolvedInPruning=146587
%%%mzn-stat: circuitNumber1MaxValuesPrunedFromSingleVar=6
%%%mzn-stat: circuitNumber1HallCircuitChecks=163015
%%%mzn-stat: circuitNumber1HallCircuitPrunings=27534
%%%mzn-stat: circuitNumber1CircuitPreventPrunings=56026
%%%mzn-stat: AverageConflictSize=13.248951328317464
%%%mzn-stat: NumUnitNogoodsLearned=0
%%%mzn-stat: AverageLearnedNogoodLength=51.61062653971636
%%%mzn-stat: AverageBacktrackAmount=0
%%%mzn-stat: AverageLbd=40.464012251148546
%%%mzn-stat: 2AutonomousSearchNumBackupCalled=1474
%%%mzn-stat: 2AutonomousSearchNumPredicatesRemoved=0
%%%mzn-stat: 2AutonomousSearchNumCalls=1476
%%%mzn-stat: 2AutonomousSearchNumPredicatesAdded=3957
%%%mzn-stat: 2AutonomousSearchAverageSizeOfHeap=2.693766937669377
%%%mzn-stat: 2AutonomousSearchNumAssignedPredicatesEncountered=3976
%%%mzn-stat-end
maxleg = 448;
succ = array1d(1..100,[22, 10, 4, 12, 16, 23, 29, 15, 17, 26, 13, 2, 21, 3, 24, 25, 19, 9, 28, 8, 41, 5, 27, 35, 37, 1, 72, 53, 6, 38, 36, 34, 7, 42, 64, 45, 71, 39, 47, 14, 18, 46, 11, 40, 57, 68, 48, 49, 55, 31, 43, 89, 59, 50, 56, 62, 78, 30, 70, 69, 20, 90, 44, 98, 51, 60, 95, 97, 67, 84, 87, 75, 61, 83, 54, 80, 65, 92, 52, 58, 99, 81, 86, 76, 96, 91, 82, 63, 32, 85, 79, 77, 100, 66, 73, 93, 33, 74, 94, 88]);
% time elapsed: 30.03 s
----------
%%%mzn-stat: initTime=0.022373485
%%%mzn-stat: objective=262
%%%mzn-stat: nodes=17470
%%%mzn-stat: restarts=0
%%%mzn-stat: peakDepth=816
%%%mzn-stat: solveTime=22.964738763
%%%mzn-stat: variables=1374
%%%mzn-stat: propagators=1046
%%%mzn-stat: failures=15019
%%%mzn-stat: propagations=496330
%%%mzn-stat: nogoods=15019
%%%mzn-stat: numAtomicConstraintsPropagated=0
%%%mzn-stat: circuitNumber1PropagationsTotal=103224
%%%mzn-stat: circuitNumber1CircuitConflicts=14089
%%%mzn-stat: circuitNumber1AlldiffConflicts=801
%%%mzn-stat: circuitNumber1TotalFixedEdgesAtConflict=827598
%%%mzn-stat: circuitNumber1NumberOfConflicts=14890
%%%mzn-stat: circuitNumber1GacPrunings=181553
%%%mzn-stat: circuitNumber1PropagationsThatGacPruned=60558
%%%mzn-stat: circuitNumber1TotalPruningHallSetSize=985980
%%%mzn-stat: circuitNumber1NumberOfPruningExplanations=181553
%%%mzn-stat: circuitNumber1MaxPruningHallSetSize=84
%%%mzn-stat: circuitNumber1TotalSccSizeAtPruning=601781
%%%mzn-stat: circuitNumber1NumberOfSccPruningCalls=60558
%%%mzn-stat: circuitNumber1TotalVarsInvolvedInPruning=146953
%%%mzn-stat: circuitNumber1MaxValuesPrunedFromSingleVar=6
%%%mzn-stat: circuitNumber1HallCircuitChecks=163248
%%%mzn-stat: circuitNumber1HallCircuitPrunings=27537
%%%mzn-stat: circuitNumber1CircuitPreventPrunings=56062
%%%mzn-stat: AverageConflictSize=13.248951328317464
%%%mzn-stat: NumUnitNogoodsLearned=0
%%%mzn-stat: AverageLearnedNogoodLength=51.61062653971636
%%%mzn-stat: AverageBacktrackAmount=0
%%%mzn-stat: AverageLbd=40.464012251148546
%%%mzn-stat: 2AutonomousSearchNumBackupCalled=2197
%%%mzn-stat: 2AutonomousSearchNumPredicatesRemoved=0
%%%mzn-stat: 2AutonomousSearchNumCalls=2200
%%%mzn-stat: 2AutonomousSearchNumPredicatesAdded=3957
%%%mzn-stat: 2AutonomousSearchAverageSizeOfHeap=3.1686363636363635
%%%mzn-stat: 2AutonomousSearchNumAssignedPredicatesEncountered=6971
%%%mzn-stat-end
maxleg = 262;
succ = array1d(1..100,[22, 10, 4, 12, 16, 23, 29, 15, 17, 26, 13, 2, 21, 3, 24, 25, 19, 9, 28, 8, 41, 5, 27, 35, 37, 1, 72, 53, 6, 38, 36, 34, 7, 42, 64, 45, 97, 39, 47, 14, 18, 46, 11, 40, 78, 33, 48, 49, 55, 31, 43, 89, 59, 50, 56, 62, 65, 30, 70, 66, 20, 90, 44, 74, 51, 94, 95, 79, 67, 69, 57, 75, 61, 98, 54, 84, 80, 92, 52, 76, 82, 87, 86, 60, 83, 91, 71, 63, 32, 85, 93, 77, 96, 99, 73, 100, 68, 58, 81, 88]);
% time elapsed: 30.05 s
----------
%%%mzn-stat: initTime=0.022373485
%%%mzn-stat: objective=251
%%%mzn-stat: nodes=18242
%%%mzn-stat: restarts=0
%%%mzn-stat: peakDepth=816
%%%mzn-stat: solveTime=22.984201566
%%%mzn-stat: variables=1374
%%%mzn-stat: propagators=1046
%%%mzn-stat: failures=15019
%%%mzn-stat: propagations=498174
%%%mzn-stat: nogoods=15019
%%%mzn-stat: numAtomicConstraintsPropagated=0
%%%mzn-stat: circuitNumber1PropagationsTotal=103358
%%%mzn-stat: circuitNumber1CircuitConflicts=14089
%%%mzn-stat: circuitNumber1AlldiffConflicts=801
%%%mzn-stat: circuitNumber1TotalFixedEdgesAtConflict=827598
%%%mzn-stat: circuitNumber1NumberOfConflicts=14890
%%%mzn-stat: circuitNumber1GacPrunings=181949
%%%mzn-stat: circuitNumber1PropagationsThatGacPruned=60626
%%%mzn-stat: circuitNumber1TotalPruningHallSetSize=987766
%%%mzn-stat: circuitNumber1NumberOfPruningExplanations=181949
%%%mzn-stat: circuitNumber1MaxPruningHallSetSize=84
%%%mzn-stat: circuitNumber1TotalSccSizeAtPruning=602287
%%%mzn-stat: circuitNumber1NumberOfSccPruningCalls=60626
%%%mzn-stat: circuitNumber1TotalVarsInvolvedInPruning=147307
%%%mzn-stat: circuitNumber1MaxValuesPrunedFromSingleVar=6
%%%mzn-stat: circuitNumber1HallCircuitChecks=163485
%%%mzn-stat: circuitNumber1HallCircuitPrunings=27539
%%%mzn-stat: circuitNumber1CircuitPreventPrunings=56102
%%%mzn-stat: AverageConflictSize=13.248951328317464
%%%mzn-stat: NumUnitNogoodsLearned=0
%%%mzn-stat: AverageLearnedNogoodLength=51.61062653971636
%%%mzn-stat: AverageBacktrackAmount=0
%%%mzn-stat: AverageLbd=40.464012251148546
%%%mzn-stat: 2AutonomousSearchNumBackupCalled=2913
%%%mzn-stat: 2AutonomousSearchNumPredicatesRemoved=0
%%%mzn-stat: 2AutonomousSearchNumCalls=2917
%%%mzn-stat: 2AutonomousSearchNumPredicatesAdded=3957
%%%mzn-stat: 2AutonomousSearchAverageSizeOfHeap=3.4165238258484742
%%%mzn-stat: 2AutonomousSearchNumAssignedPredicatesEncountered=9966
%%%mzn-stat-end
maxleg = 251;
succ = array1d(1..100,[22, 10, 4, 12, 16, 23, 29, 15, 17, 26, 13, 2, 21, 3, 24, 25, 19, 9, 28, 8, 41, 5, 27, 35, 37, 1, 72, 53, 6, 38, 36, 34, 7, 42, 64, 45, 97, 39, 47, 14, 18, 46, 11, 40, 78, 33, 48, 49, 55, 31, 43, 89, 59, 50, 56, 62, 65, 98, 70, 66, 20, 67, 44, 83, 51, 94, 69, 79, 60, 84, 57, 75, 61, 91, 54, 58, 80, 92, 52, 30, 82, 87, 86, 76, 90, 93, 71, 63, 32, 95, 96, 77, 100, 99, 73, 85, 68, 74, 81, 88]);
% time elapsed: 30.08 s
----------
%%%mzn-stat: initTime=0.022373485
%%%mzn-stat: objective=237
%%%mzn-stat: nodes=19002
%%%mzn-stat: restarts=0
%%%mzn-stat: peakDepth=816
%%%mzn-stat: solveTime=23.009975162
%%%mzn-stat: variables=1374
%%%mzn-stat: propagators=1046
%%%mzn-stat: failures=15022
%%%mzn-stat: propagations=500238
%%%mzn-stat: nogoods=15022
%%%mzn-stat: numAtomicConstraintsPropagated=0
%%%mzn-stat: circuitNumber1PropagationsTotal=103535
%%%mzn-stat: circuitNumber1CircuitConflicts=14091
%%%mzn-stat: circuitNumber1AlldiffConflicts=801
%%%mzn-stat: circuitNumber1TotalFixedEdgesAtConflict=827700
%%%mzn-stat: circuitNumber1NumberOfConflicts=14892
%%%mzn-stat: circuitNumber1GacPrunings=182428
%%%mzn-stat: circuitNumber1PropagationsThatGacPruned=60715
%%%mzn-stat: circuitNumber1TotalPruningHallSetSize=989617
%%%mzn-stat: circuitNumber1NumberOfPruningExplanations=182428
%%%mzn-stat: circuitNumber1MaxPruningHallSetSize=84
%%%mzn-stat: circuitNumber1TotalSccSizeAtPruning=602845
%%%mzn-stat: circuitNumber1NumberOfSccPruningCalls=60715
%%%mzn-stat: circuitNumber1TotalVarsInvolvedInPruning=147736
%%%mzn-stat: circuitNumber1MaxValuesPrunedFromSingleVar=6
%%%mzn-stat: circuitNumber1HallCircuitChecks=163824
%%%mzn-stat: circuitNumber1HallCircuitPrunings=27541
%%%mzn-stat: circuitNumber1CircuitPreventPrunings=56152
%%%mzn-stat: AverageConflictSize=13.247703368393024
%%%mzn-stat: NumUnitNogoodsLearned=0
%%%mzn-stat: AverageLearnedNogoodLength=51.60318199973372
%%%mzn-stat: AverageBacktrackAmount=0
%%%mzn-stat: AverageLbd=40.45752895752896
%%%mzn-stat: 2AutonomousSearchNumBackupCalled=3600
%%%mzn-stat: 2AutonomousSearchNumPredicatesRemoved=0
%%%mzn-stat: 2AutonomousSearchNumCalls=3605
%%%mzn-stat: 2AutonomousSearchNumPredicatesAdded=4209
%%%mzn-stat: 2AutonomousSearchAverageSizeOfHeap=3.596116504854369
%%%mzn-stat: 2AutonomousSearchNumAssignedPredicatesEncountered=12964
%%%mzn-stat-end
maxleg = 237;
succ = array1d(1..100,[22, 10, 4, 12, 16, 23, 29, 15, 17, 26, 13, 2, 21, 3, 24, 25, 19, 9, 28, 8, 41, 5, 27, 35, 37, 1, 72, 53, 6, 38, 36, 34, 7, 42, 64, 45, 97, 39, 47, 14, 18, 68, 11, 40, 78, 79, 48, 49, 55, 31, 43, 89, 59, 50, 56, 62, 65, 98, 70, 66, 20, 67, 44, 83, 51, 94, 69, 33, 60, 84, 57, 75, 61, 91, 54, 58, 80, 92, 52, 30, 82, 87, 86, 76, 90, 93, 71, 63, 32, 95, 96, 77, 100, 99, 73, 85, 46, 74, 81, 88]);
% time elapsed: 30.11 s
----------
%%%mzn-stat: initTime=0.022373485
%%%mzn-stat: objective=234
%%%mzn-stat: nodes=19792
%%%mzn-stat: restarts=0
%%%mzn-stat: peakDepth=816
%%%mzn-stat: solveTime=23.046058875
%%%mzn-stat: variables=1374
%%%mzn-stat: propagators=1046
%%%mzn-stat: failures=15036
%%%mzn-stat: propagations=502672
%%%mzn-stat: nogoods=15036
%%%mzn-stat: numAtomicConstraintsPropagated=0
%%%mzn-stat: circuitNumber1PropagationsTotal=103768
%%%mzn-stat: circuitNumber1CircuitConflicts=14100
%%%mzn-stat: circuitNumber1AlldiffConflicts=803
%%%mzn-stat: circuitNumber1TotalFixedEdgesAtConflict=828584
%%%mzn-stat: circuitNumber1NumberOfConflicts=14903
%%%mzn-stat: circuitNumber1GacPrunings=183083
%%%mzn-stat: circuitNumber1PropagationsThatGacPruned=60829
%%%mzn-stat: circuitNumber1TotalPruningHallSetSize=993630
%%%mzn-stat: circuitNumber1NumberOfPruningExplanations=183083
%%%mzn-stat: circuitNumber1MaxPruningHallSetSize=84
%%%mzn-stat: circuitNumber1TotalSccSizeAtPruning=604220
%%%mzn-stat: circuitNumber1NumberOfSccPruningCalls=60829
%%%mzn-stat: circuitNumber1TotalVarsInvolvedInPruning=148296
%%%mzn-stat: circuitNumber1MaxValuesPrunedFromSingleVar=6
%%%mzn-stat: circuitNumber1HallCircuitChecks=164276
%%%mzn-stat: circuitNumber1HallCircuitPrunings=27546
%%%mzn-stat: circuitNumber1CircuitPreventPrunings=56215
%%%mzn-stat: AverageConflictSize=13.241420590582601
%%%mzn-stat: NumUnitNogoodsLearned=0
%%%mzn-stat: AverageLearnedNogoodLength=51.582801276935356
%%%mzn-stat: AverageBacktrackAmount=0
%%%mzn-stat: AverageLbd=40.43335993615323
%%%mzn-stat: 2AutonomousSearchNumBackupCalled=4299
%%%mzn-stat: 2AutonomousSearchNumPredicatesRemoved=0
%%%mzn-stat: 2AutonomousSearchNumCalls=4305
%%%mzn-stat: 2AutonomousSearchNumPredicatesAdded=5271
%%%mzn-stat: 2AutonomousSearchAverageSizeOfHeap=3.8315911730545875
%%%mzn-stat: 2AutonomousSearchNumAssignedPredicatesEncountered=16495
%%%mzn-stat-end
maxleg = 234;
succ = array1d(1..100,[22, 10, 14, 12, 16, 23, 29, 15, 17, 26, 13, 2, 21, 4, 24, 25, 19, 9, 28, 8, 41, 5, 27, 35, 37, 89, 72, 53, 6, 38, 36, 34, 7, 42, 64, 1, 71, 39, 47, 3, 18, 46, 11, 40, 57, 52, 48, 49, 55, 31, 43, 79, 59, 50, 56, 67, 80, 30, 84, 66, 20, 90, 44, 98, 77, 94, 62, 97, 60, 69, 87, 75, 61, 83, 54, 58, 92, 45, 68, 76, 51, 81, 85, 70, 96, 91, 82, 63, 32, 95, 93, 78, 100, 99, 73, 86, 33, 74, 65, 88]);
% time elapsed: 30.15 s
----------
%%%mzn-stat: initTime=0.022373485
%%%mzn-stat: objective=232
%%%mzn-stat: nodes=20547
%%%mzn-stat: restarts=0
%%%mzn-stat: peakDepth=816
%%%mzn-stat: solveTime=23.069328574
%%%mzn-stat: variables=1374
%%%mzn-stat: propagators=1046
%%%mzn-stat: failures=15037
%%%mzn-stat: propagations=504620
%%%mzn-stat: nogoods=15037
%%%mzn-stat: numAtomicConstraintsPropagated=0
%%%mzn-stat: circuitNumber1PropagationsTotal=103916
%%%mzn-stat: circuitNumber1CircuitConflicts=14101
%%%mzn-stat: circuitNumber1AlldiffConflicts=803
%%%mzn-stat: circuitNumber1TotalFixedEdgesAtConflict=828660
%%%mzn-stat: circuitNumber1NumberOfConflicts=14904
%%%mzn-stat: circuitNumber1GacPrunings=183492
%%%mzn-stat: circuitNumber1PropagationsThatGacPruned=60904
%%%mzn-stat: circuitNumber1TotalPruningHallSetSize=996198
%%%mzn-stat: circuitNumber1NumberOfPruningExplanations=183492
%%%mzn-stat: circuitNumber1MaxPruningHallSetSize=84
%%%mzn-stat: circuitNumber1TotalSccSizeAtPruning=605194
%%%mzn-stat: circuitNumber1NumberOfSccPruningCalls=60904
%%%mzn-stat: circuitNumber1TotalVarsInvolvedInPruning=148663
%%%mzn-stat: circuitNumber1MaxValuesPrunedFromSingleVar=6
%%%mzn-stat: circuitNumber1HallCircuitChecks=164561
%%%mzn-stat: circuitNumber1HallCircuitPrunings=27551
%%%mzn-stat: circuitNumber1CircuitPreventPrunings=56258
%%%mzn-stat: AverageConflictSize=13.24067300658376
%%%mzn-stat: NumUnitNogoodsLearned=0
%%%mzn-stat: AverageLearnedNogoodLength=51.584026069029726
%%%mzn-stat: AverageBacktrackAmount=0
%%%mzn-stat: AverageLbd=40.4340626454745
%%%mzn-stat: 2AutonomousSearchNumBackupCalled=4994
%%%mzn-stat: 2AutonomousSearchNumPredicatesRemoved=0
%%%mzn-stat: 2AutonomousSearchNumCalls=5001
%%%mzn-stat: 2AutonomousSearchNumPredicatesAdded=5586
%%%mzn-stat: 2AutonomousSearchAverageSizeOfHeap=4.005798840231954
%%%mzn-stat: 2AutonomousSearchNumAssignedPredicatesEncountered=20033
%%%mzn-stat-end
maxleg = 232;
succ = array1d(1..100,[22, 10, 14, 12, 16, 23, 29, 15, 17, 26, 13, 2, 21, 4, 24, 25, 19, 9, 28, 8, 41, 5, 27, 35, 37, 89, 72, 53, 33, 38, 36, 6, 68, 7, 64, 1, 71, 39, 47, 3, 18, 32, 11, 40, 57, 42, 48, 49, 55, 31, 43, 79, 59, 50, 56, 67, 80, 30, 84, 66, 20, 90, 44, 98, 77, 94, 62, 97, 60, 69, 87, 75, 61, 83, 54, 58, 92, 45, 34, 76, 51, 81, 85, 70, 96, 91, 82, 63, 52, 95, 93, 78, 100, 99, 73, 86, 46, 74, 65, 88]);
% time elapsed: 30.17 s
----------
%%%mzn-stat: initTime=0.022373485
%%%mzn-stat: objective=212
%%%mzn-stat: nodes=21298
%%%mzn-stat: restarts=0
%%%mzn-stat: peakDepth=816
%%%mzn-stat: solveTime=23.094820476
%%%mzn-stat: variables=1374
%%%mzn-stat: propagators=1046
%%%mzn-stat: failures=15040
%%%mzn-stat: propagations=506609
%%%mzn-stat: nogoods=15040
%%%mzn-stat: numAtomicConstraintsPropagated=0
%%%mzn-stat: circuitNumber1PropagationsTotal=104078
%%%mzn-stat: circuitNumber1CircuitConflicts=14104
%%%mzn-stat: circuitNumber1AlldiffConflicts=803
%%%mzn-stat: circuitNumber1TotalFixedEdgesAtConflict=828839
%%%mzn-stat: circuitNumber1NumberOfConflicts=14907
%%%mzn-stat: circuitNumber1GacPrunings=183939
%%%mzn-stat: circuitNumber1PropagationsThatGacPruned=60986
%%%mzn-stat: circuitNumber1TotalPruningHallSetSize=998912
%%%mzn-stat: circuitNumber1NumberOfPruningExplanations=183939
%%%mzn-stat: circuitNumber1MaxPruningHallSetSize=84
%%%mzn-stat: circuitNumber1TotalSccSizeAtPruning=606178
%%%mzn-stat: circuitNumber1NumberOfSccPruningCalls=60986
%%%mzn-stat: circuitNumber1TotalVarsInvolvedInPruning=149062
%%%mzn-stat: circuitNumber1MaxValuesPrunedFromSingleVar=6
%%%mzn-stat: circuitNumber1HallCircuitChecks=164876
%%%mzn-stat: circuitNumber1HallCircuitPrunings=27557
%%%mzn-stat: circuitNumber1CircuitPreventPrunings=56301
%%%mzn-stat: AverageConflictSize=13.23902925531915
%%%mzn-stat: NumUnitNogoodsLearned=0
%%%mzn-stat: AverageLearnedNogoodLength=51.580518617021276
%%%mzn-stat: AverageBacktrackAmount=0
%%%mzn-stat: AverageLbd=40.430186170212764
%%%mzn-stat: 2AutonomousSearchNumBackupCalled=5678
%%%mzn-stat: 2AutonomousSearchNumPredicatesRemoved=0
%%%mzn-stat: 2AutonomousSearchNumCalls=5686
%%%mzn-stat: 2AutonomousSearchNumPredicatesAdded=6097
%%%mzn-stat: 2AutonomousSearchAverageSizeOfHeap=4.159514597256419
%%%mzn-stat: 2AutonomousSearchNumAssignedPredicatesEncountered=23651
%%%mzn-stat-end
maxleg = 212;
succ = array1d(1..100,[22, 10, 14, 12, 16, 23, 29, 15, 17, 26, 13, 2, 21, 4, 24, 25, 19, 9, 28, 8, 41, 5, 27, 35, 37, 89, 72, 53, 33, 38, 36, 6, 97, 7, 64, 1, 71, 39, 47, 3, 18, 32, 11, 40, 57, 34, 48, 49, 55, 31, 43, 46, 59, 50, 56, 67, 80, 30, 84, 66, 20, 90, 44, 98, 77, 94, 62, 79, 60, 69, 87, 75, 61, 83, 54, 58, 92, 45, 42, 76, 51, 81, 85, 70, 96, 91, 82, 63, 52, 95, 93, 78, 100, 99, 73, 86, 68, 74, 65, 88]);
% time elapsed: 30.20 s
----------
%%%mzn-stat: initTime=0.022373485
%%%mzn-stat: objective=211
%%%mzn-stat: nodes=22126
%%%mzn-stat: restarts=0
%%%mzn-stat: peakDepth=816
%%%mzn-stat: solveTime=23.20590897
%%%mzn-stat: variables=1374
%%%mzn-stat: propagators=1046
%%%mzn-stat: failures=15105
%%%mzn-stat: propagations=511103
%%%mzn-stat: nogoods=15105
%%%mzn-stat: numAtomicConstraintsPropagated=0
%%%mzn-stat: circuitNumber1PropagationsTotal=104613
%%%mzn-stat: circuitNumber1CircuitConflicts=14137
%%%mzn-stat: circuitNumber1AlldiffConflicts=809
%%%mzn-stat: circuitNumber1TotalFixedEdgesAtConflict=832062
%%%mzn-stat: circuitNumber1NumberOfConflicts=14946
%%%mzn-stat: circuitNumber1GacPrunings=185621
%%%mzn-stat: circuitNumber1PropagationsThatGacPruned=61275
%%%mzn-stat: circuitNumber1TotalPruningHallSetSize=1009402
%%%mzn-stat: circuitNumber1NumberOfPruningExplanations=185621
%%%mzn-stat: circuitNumber1MaxPruningHallSetSize=84
%%%mzn-stat: circuitNumber1TotalSccSizeAtPruning=609508
%%%mzn-stat: circuitNumber1NumberOfSccPruningCalls=61275
%%%mzn-stat: circuitNumber1TotalVarsInvolvedInPruning=150376
%%%mzn-stat: circuitNumber1MaxValuesPrunedFromSingleVar=6
%%%mzn-stat: circuitNumber1HallCircuitChecks=166156
%%%mzn-stat: circuitNumber1HallCircuitPrunings=27585
%%%mzn-stat: circuitNumber1CircuitPreventPrunings=56536
%%%mzn-stat: AverageConflictSize=13.231247931148626
%%%mzn-stat: NumUnitNogoodsLearned=0
%%%mzn-stat: AverageLearnedNogoodLength=51.55835815954982
%%%mzn-stat: AverageBacktrackAmount=0
%%%mzn-stat: AverageLbd=40.37835153922542
%%%mzn-stat: 2AutonomousSearchNumBackupCalled=6367
%%%mzn-stat: 2AutonomousSearchNumPredicatesRemoved=0
%%%mzn-stat: 2AutonomousSearchNumCalls=6376
%%%mzn-stat: 2AutonomousSearchNumPredicatesAdded=7853
%%%mzn-stat: 2AutonomousSearchAverageSizeOfHeap=4.374372647427855
%%%mzn-stat: 2AutonomousSearchNumAssignedPredicatesEncountered=27891
%%%mzn-stat-end
maxleg = 211;
succ = array1d(1..100,[22, 10, 14, 12, 16, 23, 29, 15, 17, 26, 13, 2, 21, 4, 24, 25, 19, 9, 28, 8, 41, 5, 27, 35, 37, 89, 72, 53, 33, 38, 36, 6, 97, 7, 64, 1, 71, 39, 47, 3, 18, 32, 11, 40, 78, 34, 48, 49, 55, 31, 43, 46, 59, 50, 67, 62, 45, 30, 84, 66, 20, 90, 44, 98, 51, 94, 69, 79, 60, 56, 57, 75, 61, 83, 54, 58, 80, 92, 42, 76, 82, 87, 85, 70, 96, 91, 65, 63, 52, 95, 93, 77, 100, 99, 73, 86, 68, 74, 81, 88]);
% time elapsed: 30.32 s
----------
%%%mzn-stat: initTime=0.022373485
%%%mzn-stat: objective=209
%%%mzn-stat: nodes=22862
%%%mzn-stat: restarts=0
%%%mzn-stat: peakDepth=816
%%%mzn-stat: solveTime=23.232849613
%%%mzn-stat: variables=1374
%%%mzn-stat: propagators=1046
%%%mzn-stat: failures=15110
%%%mzn-stat: propagations=513204
%%%mzn-stat: nogoods=15110
%%%mzn-stat: numAtomicConstraintsPropagated=0
%%%mzn-stat: circuitNumber1PropagationsTotal=104793
%%%mzn-stat: circuitNumber1CircuitConflicts=14139
%%%mzn-stat: circuitNumber1AlldiffConflicts=811
%%%mzn-stat: circuitNumber1TotalFixedEdgesAtConflict=832313
%%%mzn-stat: circuitNumber1NumberOfConflicts=14950
%%%mzn-stat: circuitNumber1GacPrunings=186098
%%%mzn-stat: circuitNumber1PropagationsThatGacPruned=61365
%%%mzn-stat: circuitNumber1TotalPruningHallSetSize=1011977
%%%mzn-stat: circuitNumber1NumberOfPruningExplanations=186098
%%%mzn-stat: circuitNumber1MaxPruningHallSetSize=84
%%%mzn-stat: circuitNumber1TotalSccSizeAtPruning=610346
%%%mzn-stat: circuitNumber1NumberOfSccPruningCalls=61365
%%%mzn-stat: circuitNumber1TotalVarsInvolvedInPruning=150808
%%%mzn-stat: circuitNumber1MaxValuesPrunedFromSingleVar=6
%%%mzn-stat: circuitNumber1HallCircuitChecks=166546
%%%mzn-stat: circuitNumber1HallCircuitPrunings=27590
%%%mzn-stat: circuitNumber1CircuitPreventPrunings=56587
%%%mzn-stat: AverageConflictSize=13.232031767041693
%%%mzn-stat: NumUnitNogoodsLearned=0
%%%mzn-stat: AverageLearnedNogoodLength=51.549305095962936
%%%mzn-stat: AverageBacktrackAmount=0
%%%mzn-stat: AverageLbd=40.36876240900066
%%%mzn-stat: 2AutonomousSearchNumBackupCalled=7029
%%%mzn-stat: 2AutonomousSearchNumPredicatesRemoved=0
%%%mzn-stat: 2AutonomousSearchNumCalls=7039
%%%mzn-stat: 2AutonomousSearchNumPredicatesAdded=8457
%%%mzn-stat: 2AutonomousSearchAverageSizeOfHeap=4.580053984941043
%%%mzn-stat: 2AutonomousSearchNumAssignedPredicatesEncountered=32239
%%%mzn-stat-end
maxleg = 209;
succ = array1d(1..100,[22, 10, 14, 12, 16, 23, 29, 15, 17, 26, 13, 2, 21, 4, 24, 25, 19, 9, 28, 8, 41, 5, 27, 35, 37, 89, 72, 53, 33, 38, 36, 6, 97, 7, 64, 45, 71, 39, 47, 3, 18, 32, 11, 40, 92, 34, 48, 49, 55, 31, 43, 46, 59, 50, 56, 67, 65, 30, 84, 66, 20, 90, 44, 98, 51, 94, 62, 79, 60, 69, 57, 75, 61, 83, 54, 58, 80, 1, 42, 76, 82, 87, 85, 70, 96, 91, 77, 63, 52, 95, 93, 78, 100, 99, 73, 86, 68, 74, 81, 88]);
% time elapsed: 30.35 s
----------
%%%mzn-stat: initTime=0.022373485
%%%mzn-stat: objective=206
%%%mzn-stat: nodes=23581
%%%mzn-stat: restarts=0
%%%mzn-stat: peakDepth=816
%%%mzn-stat: solveTime=23.254654959
%%%mzn-stat: variables=1374
%%%mzn-stat: propagators=1046
%%%mzn-stat: failures=15111
%%%mzn-stat: propagations=515159
%%%mzn-stat: nogoods=15111
%%%mzn-stat: numAtomicConstraintsPropagated=0
%%%mzn-stat: circuitNumber1PropagationsTotal=104932
%%%mzn-stat: circuitNumber1CircuitConflicts=14140
%%%mzn-stat: circuitNumber1AlldiffConflicts=811
%%%mzn-stat: circuitNumber1TotalFixedEdgesAtConflict=832394
%%%mzn-stat: circuitNumber1NumberOfConflicts=14951
%%%mzn-stat: circuitNumber1GacPrunings=186472
%%%mzn-stat: circuitNumber1PropagationsThatGacPruned=61435
%%%mzn-stat: circuitNumber1TotalPruningHallSetSize=1014292
%%%mzn-stat: circuitNumber1NumberOfPruningExplanations=186472
%%%mzn-stat: circuitNumber1MaxPruningHallSetSize=84
%%%mzn-stat: circuitNumber1TotalSccSizeAtPruning=611102
%%%mzn-stat: circuitNumber1NumberOfSccPruningCalls=61435
%%%mzn-stat: circuitNumber1TotalVarsInvolvedInPruning=151147
%%%mzn-stat: circuitNumber1MaxValuesPrunedFromSingleVar=6
%%%mzn-stat: circuitNumber1HallCircuitChecks=166813
%%%mzn-stat: circuitNumber1HallCircuitPrunings=27592
%%%mzn-stat: circuitNumber1CircuitPreventPrunings=56633
%%%mzn-stat: AverageConflictSize=13.23142081927073
%%%mzn-stat: NumUnitNogoodsLearned=0
%%%mzn-stat: AverageLearnedNogoodLength=51.547481966779166
%%%mzn-stat: AverageBacktrackAmount=0
%%%mzn-stat: AverageLbd=40.36701740453974
%%%mzn-stat: 2AutonomousSearchNumBackupCalled=7691
%%%mzn-stat: 2AutonomousSearchNumPredicatesRemoved=0
%%%mzn-stat: 2AutonomousSearchNumCalls=7702
%%%mzn-stat: 2AutonomousSearchNumPredicatesAdded=8502
%%%mzn-stat: 2AutonomousSearchAverageSizeOfHeap=4.750324591015321
%%%mzn-stat: 2AutonomousSearchNumAssignedPredicatesEncountered=36587
%%%mzn-stat-end
maxleg = 206;
succ = array1d(1..100,[22, 10, 14, 12, 16, 23, 29, 15, 17, 26, 13, 2, 21, 4, 24, 25, 19, 9, 28, 61, 41, 5, 27, 35, 37, 89, 72, 53, 33, 38, 36, 6, 97, 7, 64, 45, 71, 39, 47, 3, 18, 32, 11, 40, 92, 34, 48, 49, 55, 31, 43, 46, 59, 50, 8, 62, 65, 30, 60, 66, 85, 90, 44, 83, 51, 94, 56, 79, 67, 69, 57, 75, 20, 98, 54, 84, 80, 1, 42, 76, 82, 87, 86, 70, 96, 93, 77, 63, 52, 95, 74, 78, 100, 99, 73, 91, 68, 58, 81, 88]);
% time elapsed: 30.37 s
----------
%%%mzn-stat: initTime=0.022373485
%%%mzn-stat: objective=199
%%%mzn-stat: nodes=24289
%%%mzn-stat: restarts=0
%%%mzn-stat: peakDepth=816
%%%mzn-stat: solveTime=23.275218684
%%%mzn-stat: variables=1374
%%%mzn-stat: propagators=1046
%%%mzn-stat: failures=15111
%%%mzn-stat: propagations=517084
%%%mzn-stat: nogoods=15111
%%%mzn-stat: numAtomicConstraintsPropagated=0
%%%mzn-stat: circuitNumber1PropagationsTotal=105069
%%%mzn-stat: circuitNumber1CircuitConflicts=14140
%%%mzn-stat: circuitNumber1AlldiffConflicts=811
%%%mzn-stat: circuitNumber1TotalFixedEdgesAtConflict=832394
%%%mzn-stat: circuitNumber1NumberOfConflicts=14951
%%%mzn-stat: circuitNumber1GacPrunings=186833
%%%mzn-stat: circuitNumber1PropagationsThatGacPruned=61504
%%%mzn-stat: circuitNumber1TotalPruningHallSetSize=1016518
%%%mzn-stat: circuitNumber1NumberOfPruningExplanations=186833
%%%mzn-stat: circuitNumber1MaxPruningHallSetSize=84
%%%mzn-stat: circuitNumber1TotalSccSizeAtPruning=611826
%%%mzn-stat: circuitNumber1NumberOfSccPruningCalls=61504
%%%mzn-stat: circuitNumber1TotalVarsInvolvedInPruning=151471
%%%mzn-stat: circuitNumber1MaxValuesPrunedFromSingleVar=6
%%%mzn-stat: circuitNumber1HallCircuitChecks=167074
%%%mzn-stat: circuitNumber1HallCircuitPrunings=27594
%%%mzn-stat: circuitNumber1CircuitPreventPrunings=56678
%%%mzn-stat: AverageConflictSize=13.23142081927073
%%%mzn-stat: NumUnitNogoodsLearned=0
%%%mzn-stat: AverageLearnedNogoodLength=51.547481966779166
%%%mzn-stat: AverageBacktrackAmount=0
%%%mzn-stat: AverageLbd=40.36701740453974
%%%mzn-stat: 2AutonomousSearchNumBackupCalled=8344
%%%mzn-stat: 2AutonomousSearchNumPredicatesRemoved=0
%%%mzn-stat: 2AutonomousSearchNumCalls=8356
%%%mzn-stat: 2AutonomousSearchNumPredicatesAdded=8502
%%%mzn-stat: 2AutonomousSearchAverageSizeOfHeap=4.898875059837243
%%%mzn-stat: 2AutonomousSearchNumAssignedPredicatesEncountered=40935
%%%mzn-stat-end
maxleg = 199;
succ = array1d(1..100,[22, 10, 14, 12, 16, 23, 29, 15, 17, 26, 13, 2, 21, 4, 24, 25, 19, 9, 28, 61, 41, 5, 27, 35, 37, 89, 72, 53, 33, 38, 36, 6, 97, 7, 64, 45, 71, 39, 47, 3, 18, 32, 11, 40, 92, 34, 48, 49, 55, 31, 43, 46, 59, 50, 8, 62, 65, 30, 60, 66, 85, 95, 44, 83, 51, 94, 56, 79, 67, 69, 57, 75, 20, 98, 54, 84, 80, 1, 42, 76, 82, 87, 86, 70, 96, 93, 77, 63, 52, 73, 74, 78, 100, 99, 90, 91, 68, 58, 81, 88]);
% time elapsed: 30.40 s
----------
%%%mzn-stat: initTime=0.022373485
%%%mzn-stat: objective=193
%%%mzn-stat: nodes=45539
%%%mzn-stat: restarts=0
%%%mzn-stat: peakDepth=816
%%%mzn-stat: solveTime=58.531765528
%%%mzn-stat: variables=1374
%%%mzn-stat: propagators=1046
%%%mzn-stat: failures=35582
%%%mzn-stat: propagations=1084445
%%%mzn-stat: nogoods=35582
%%%mzn-stat: numAtomicConstraintsPropagated=0
%%%mzn-stat: circuitNumber1PropagationsTotal=197408
%%%mzn-stat: circuitNumber1CircuitConflicts=24268
%%%mzn-stat: circuitNumber1AlldiffConflicts=811
%%%mzn-stat: circuitNumber1TotalFixedEdgesAtConflict=1400139
%%%mzn-stat: circuitNumber1NumberOfConflicts=25079
%%%mzn-stat: circuitNumber1GacPrunings=489566
%%%mzn-stat: circuitNumber1PropagationsThatGacPruned=122991
%%%mzn-stat: circuitNumber1TotalPruningHallSetSize=3563478
%%%mzn-stat: circuitNumber1NumberOfPruningExplanations=489566
%%%mzn-stat: circuitNumber1MaxPruningHallSetSize=84
%%%mzn-stat: circuitNumber1TotalSccSizeAtPruning=2317965
%%%mzn-stat: circuitNumber1NumberOfSccPruningCalls=122991
%%%mzn-stat: circuitNumber1TotalVarsInvolvedInPruning=401122
%%%mzn-stat: circuitNumber1MaxValuesPrunedFromSingleVar=6
%%%mzn-stat: circuitNumber1HallCircuitChecks=342497
%%%mzn-stat: circuitNumber1HallCircuitPrunings=37276
%%%mzn-stat: circuitNumber1CircuitPreventPrunings=116800
%%%mzn-stat: AverageConflictSize=12.05986172783992
%%%mzn-stat: NumUnitNogoodsLearned=0
%%%mzn-stat: AverageLearnedNogoodLength=64.46548816817491
%%%mzn-stat: AverageBacktrackAmount=0
%%%mzn-stat: AverageLbd=38.66648867404868
%%%mzn-stat: 2AutonomousSearchNumBackupCalled=8982
%%%mzn-stat: 2AutonomousSearchNumPredicatesRemoved=0
%%%mzn-stat: 2AutonomousSearchNumCalls=8995
%%%mzn-stat: 2AutonomousSearchNumPredicatesAdded=10953
%%%mzn-stat: 2AutonomousSearchAverageSizeOfHeap=5.096942745969983
%%%mzn-stat: 2AutonomousSearchNumAssignedPredicatesEncountered=45847
%%%mzn-stat-end
maxleg = 193;
succ = array1d(1..100,[22, 10, 14, 12, 16, 23, 29, 15, 17, 26, 13, 2, 21, 4, 24, 25, 19, 9, 28, 61, 41, 5, 27, 35, 37, 89, 72, 53, 33, 38, 36, 6, 97, 7, 64, 78, 71, 39, 47, 3, 18, 32, 11, 40, 1, 34, 48, 49, 55, 31, 43, 46, 59, 50, 8, 62, 65, 30, 60, 66, 85, 95, 44, 83, 51, 94, 56, 79, 67, 69, 57, 75, 20, 98, 54, 84, 80, 92, 42, 76, 82, 87, 86, 70, 96, 93, 77, 63, 52, 73, 74, 45, 100, 99, 90, 91, 68, 58, 81, 88]);
% time elapsed: 65.66 s
----------
%%%mzn-stat: initTime=0.022373485
%%%mzn-stat: objective=193
%%%mzn-stat: nodes=888909
%%%mzn-stat: restarts=0
%%%mzn-stat: peakDepth=816
%%%mzn-stat: solveTime=1792.642323887
%%%mzn-stat: variables=1374
%%%mzn-stat: propagators=1046
%%%mzn-stat: failures=875282
%%%mzn-stat: propagations=24181640
%%%mzn-stat: nogoods=875282
%%%mzn-stat: numAtomicConstraintsPropagated=0
%%%mzn-stat: circuitNumber1PropagationsTotal=3949180
%%%mzn-stat: circuitNumber1CircuitConflicts=420844
%%%mzn-stat: circuitNumber1AlldiffConflicts=811
%%%mzn-stat: circuitNumber1TotalFixedEdgesAtConflict=23384124
%%%mzn-stat: circuitNumber1NumberOfConflicts=421655
%%%mzn-stat: circuitNumber1GacPrunings=11812995
%%%mzn-stat: circuitNumber1PropagationsThatGacPruned=2631213
%%%mzn-stat: circuitNumber1TotalPruningHallSetSize=108064879
%%%mzn-stat: circuitNumber1NumberOfPruningExplanations=11812995
%%%mzn-stat: circuitNumber1MaxPruningHallSetSize=84
%%%mzn-stat: circuitNumber1TotalSccSizeAtPruning=72830622
%%%mzn-stat: circuitNumber1NumberOfSccPruningCalls=2631213
%%%mzn-stat: circuitNumber1TotalVarsInvolvedInPruning=9737908
%%%mzn-stat: circuitNumber1MaxValuesPrunedFromSingleVar=6
%%%mzn-stat: circuitNumber1HallCircuitChecks=7494395
%%%mzn-stat: circuitNumber1HallCircuitPrunings=430218
%%%mzn-stat: circuitNumber1CircuitPreventPrunings=2570479
%%%mzn-stat: AverageConflictSize=11.378456314650593
%%%mzn-stat: NumUnitNogoodsLearned=0
%%%mzn-stat: AverageLearnedNogoodLength=77.01749379057264
%%%mzn-stat: AverageBacktrackAmount=0
%%%mzn-stat: AverageLbd=37.00896396818397
%%%mzn-stat: 2AutonomousSearchNumBackupCalled=8982
%%%mzn-stat: 2AutonomousSearchNumPredicatesRemoved=0
%%%mzn-stat: 2AutonomousSearchNumCalls=8995
%%%mzn-stat: 2AutonomousSearchNumPredicatesAdded=13663
%%%mzn-stat: 2AutonomousSearchAverageSizeOfHeap=5.096942745969983
%%%mzn-stat: 2AutonomousSearchNumAssignedPredicatesEncountered=45847
%%%mzn-stat-end
